\ENCODING=ISO-8859-1
\Problem name: IloCplex

Maximize
 obj1: z_0_8 + z_0_7 + z_5_6 + z_3_9 + z_1_4 + z_7_8
Subject To
 c1:  z_0_8 + y_0 - y_8 >= 0
 c2:  z_0_8 - y_0 + y_8 >= 0
 c3:  y_0 + z_0_7 - y_7 >= 0
 c4:  - y_0 + z_0_7 + y_7 >= 0
 c5:  z_5_6 + y_5 - y_6 >= 0
 c6:  z_5_6 - y_5 + y_6 >= 0
 c7:  y_0 + z_0_2 - y_2 >= 0
 c8:  - y_0 + z_0_2 + y_2 >= 0
 c9:  z_3_9 + y_3 - y_9 >= 0
 c10: z_3_9 - y_3 + y_9 >= 0
 c11: z_1_4 + y_1 - y_4 >= 0
 c12: z_1_4 - y_1 + y_4 >= 0
 c13: - y_8 + y_6 + z_6_8 >= 0
 c14: y_8 - y_6 + z_6_8 >= 0
 c15: - y_9 + y_4 + z_4_9 >= 0
 c16: y_9 - y_4 + z_4_9 >= 0
 c17: y_2 - y_4 + z_2_4 >= 0
 c18: - y_2 + y_4 + z_2_4 >= 0
 c19: - y_8 + y_7 + z_7_8 >= 0
 c20: y_8 - y_7 + z_7_8 >= 0
 c21: - y_8 + y_2 + z_2_8 >= 0
 c22: y_8 - y_2 + z_2_8 >= 0
 c23: - y_3 + y_1 + z_1_3 >= 0
 c24: y_3 - y_1 + z_1_3 >= 0
 c25: - y_9 + y_1 + z_1_9 >= 0
 c26: y_9 - y_1 + z_1_9 >= 0
 c27: y_0 - y_6 + z_0_6 >= 0
 c28: - y_0 + y_6 + z_0_6 >= 0
 c29: - y_7 + y_6 + z_6_7 >= 0
 c30: y_7 - y_6 + z_6_7 >= 0
 c31: - y_8 + y_5 + z_5_8 >= 0
 c32: y_8 - y_5 + z_5_8 >= 0
 c33: y_3 - y_4 + z_3_4 >= 0
 c34: - y_3 + y_4 + z_3_4 >= 0
 c35: - y_2 + y_1 + z_1_2 >= 0
 c36: y_2 - y_1 + z_1_2 >= 0
Bounds
 0 <= z_0_8 <= 1
-1 <= y_0 <= 1
-1 <= y_8 <= 1
 0 <= z_0_7 <= 1
-1 <= y_7 <= 1
 0 <= z_5_6 <= 1
-1 <= y_5 <= 1
-1 <= y_6 <= 1
 0 <= z_0_2 <= 1
-1 <= y_2 <= 1
 0 <= z_3_9 <= 1
-1 <= y_3 <= 1
-1 <= y_9 <= 1
 0 <= z_1_4 <= 1
-1 <= y_1 <= 1
-1 <= y_4 <= 1
 0 <= z_6_8 <= 1
 0 <= z_4_9 <= 1
 0 <= z_2_4 <= 1
 0 <= z_7_8 <= 1
 0 <= z_2_8 <= 1
 0 <= z_1_3 <= 1
 0 <= z_1_9 <= 1
 0 <= z_0_6 <= 1
 0 <= z_6_7 <= 1
 0 <= z_5_8 <= 1
 0 <= z_3_4 <= 1
 0 <= z_1_2 <= 1
End
